(declare-fun $speed$4 () Int)
(declare-fun $Environment~0.minus$4 () Bool)
(declare-fun $plus$4 () Bool)
(declare-fun $Environment~0.plus$4 () Bool)
(declare-fun $minus$4 () Bool)
(declare-fun $Environment~0.diff$4 () Int)
(declare-fun $OK$4 () Bool)
(declare-fun $Property~0.cpt$1 () Int)
(declare-fun $Sofar~0.Sofar$4 () Bool)
(declare-fun $Property~0.ok$4 () Bool)
(declare-fun $Environment~0.ok$4 () Bool)
(declare-fun $Property~0.acceptable$4 () Bool)
(declare-fun $realistic$4 () Bool)
(declare-fun $Property~0.cpt$4 () Int)
(declare-fun $Sofar~0.Sofar$1 () Bool)
(declare-fun $Property~0.speed$4 () Int)
(declare-fun $Environment~0.plus$1 () Bool)
(declare-fun $diff$2 () Int)
(declare-fun $Sofar~0.X$4 () Bool)
(declare-fun $Environment~0.minus$1 () Bool)

(assert (let ((a!1 (and (ite $Environment~0.minus$1 (<= $diff$2 (- 0 1)) true)
                (ite $Environment~0.plus$1 (>= $diff$2 1) true)
                (<= $diff$2 4)
                (<= (- 0 4) $diff$2)))
      (a!4 (or (not (<= (- 4) $diff$2))
               (not (<= $diff$2 4))
               (and $Environment~0.plus$1 (not (>= $diff$2 1)))
               (and $Environment~0.minus$1 (not (<= $diff$2 (- 1)))))))
(let ((a!2 (and $Sofar~0.Sofar$1 (and (< 8 16) a!1 (<= 0 8))))
      (a!5 (and $Sofar~0.Sofar$1 (and (< 13 16) a!1 (<= 0 13)))))
(let ((a!3 (and (= $realistic$4 a!1)
                (= $Environment~0.ok$4 a!1)
                (= $OK$4 (or (<= $Property~0.cpt$1 7) (not a!2)))
                (= $Sofar~0.Sofar$4 a!2)
                (= $Property~0.ok$4 (<= $Property~0.cpt$1 7))
                (= $Environment~0.diff$4 $diff$2)
                (= $Environment~0.plus$4 false)
                (= $plus$4 false)
                (= $Environment~0.minus$4 false)
                (= $minus$4 false)
                (= $Sofar~0.X$4 (and (< 8 16) a!1 (<= 0 8)))
                (= $speed$4 8)
                (= $Property~0.speed$4 8)
                (= $Property~0.acceptable$4 true)
                (= $Property~0.cpt$4 0)))
      (a!6 (and (= $realistic$4 a!1)
                (= $Environment~0.ok$4 a!1)
                (= $OK$4 (or (<= $Property~0.cpt$1 7) (not a!5)))
                (= $Sofar~0.Sofar$4 a!5)
                (= $Property~0.ok$4 (<= $Property~0.cpt$1 7))
                (= $Environment~0.diff$4 $diff$2)
                (= $Environment~0.plus$4 false)
                (= $plus$4 false)
                (= $Environment~0.minus$4 false)
                (= $minus$4 false)
                (= $Sofar~0.X$4 (and (< 13 16) a!1 (<= 0 13)))
                (= $speed$4 13)
                (= $Property~0.speed$4 13)
                (= $Property~0.acceptable$4 false)
                (= $Property~0.cpt$4 (+ $Property~0.cpt$1 1)))))
  (ite (and (or (not $Sofar~0.Sofar$1) (<= $Property~0.cpt$1 7))
            (<= (- 4) $diff$2)
            (<= $diff$2 4)
            (or (not $Environment~0.plus$1) (>= $diff$2 1))
            (or (not $Environment~0.minus$1) (<= $diff$2 (- 1))))
       a!3
       (ite a!4 a!6 true))))))
(check-sat)
